NAME: random problem
TYPE: MTSP
COMMENT: MTSP problem for MRS UAV summer school
DIMENSION: 20
NUMBER_OF_ROBOTS: 2
START_TARGET_INDEXES: 1, 2
NEIGHBORHOOD_RADIUS: 2
EDGE_WEIGHT_TYPE: EUC_2D
NODE_COORD_SECTION
1 15.0 -21.0
2 -5.0 -25.0
3 29.9 -6.0
4 -3.0 3.6
5 22.4 -24.1
6 -6.9 -13.2
7 -34.7 -8.2
8 -24.7 3.9
9 -3.4 10.0
10 -26.0 -10.9
11 27.8 5.1
12 36.3 -4.2
13 -8.3 -23.3
14 -21.1 -27.3
15 8.6 -22.3
16 19.7 -5.7
17 27.6 16.9
18 -30.2 -21.4
19 2.7 4.4
20 -15.7 2.8
EOF
